16 965
519 7 499 7 409 7 250 9 140 18
525 7 477 7 390 7 241 9 77 11 1 15 805 19 645 23
525 7 484 7 368 7 123 9 859 11 681 18
525 7 490 7 335 11
525 7 490 7 335 11
525 7 490 7 335 11
525 7 482 7 362 7 118 9 855 11 676 18
525 7 505 7 381 7 219 9 28 11 852 15 669 21
520 7 441 7 296 7 180 12
525 7 479 7 355 7 106 9 927 13
528 7 484 7 368 7 122 9 895 13
528 7 484 7 368 7 122 9 895 13
525 7 482 7 367 7 213 9 32 11 824 18
525 7 482 7 367 7 213 9 32 11 824 18
528 7 482 7 366 7 179 12
525 7 482 7 365 7 115 9 943 13
